(set-logic QF_S)
(declare-fun var0 () String)
(declare-fun var1 () String)
(declare-fun var2 () String)
(declare-fun var3 () String)
(declare-fun var4 () Int)
(declare-fun var5 () Int)
(declare-fun var6 () Int)
(declare-fun var7 () Int)
(assert (str.contains var0 var1))
(assert (str.suffixof (str.replace var2 var3 var0) (str.substr var3 var4 7)))
(assert (str.suffixof (str.substr var2 var5 var6) (str.at "6{.s$r" var7)))
(assert (str.suffixof var1 var3))
(check-sat)